column=12;
row=12;
Board=[|0,0,0,0,0,5,0,0,11,0,6,1|9,10,6,11,4,8,0,0,1,2,0,0|0,11,0,0,5,0,2,0,12,10,0,0|0,0,8,0,6,3,5,11,7,0,0,4|1,8,0,0,11,0,0,0,0,0,3,0|5,0,0,0,0,6,12,8,0,0,0,2|0,0,3,6,0,4,11,10,2,0,7,9|2,0,9,0,7,11,0,4,8,1,0,0|0,7,0,2,8,1,0,6,4,11,9,0|11,0,2,0,3,0,0,0,0,0,0,10|0,0,0,8,12,7,0,1,3,0,10,11|7,3,0,5,9,0,0,0,0,0,0,0|];
horizontal=[|1,1,1,0,1,0,2,0,2,2,2|0,2,0,0,1,0,1,0,0,0,0|0,0,1,0,1,2,1,0,0,2,1|0,0,0,0,0,0,1,2,0,2,1|1,0,0,0,0,0,0,1,1,0,1|0,1,0,1,0,1,0,0,2,1,0|0,0,1,2,1,0,2,2,0,0,1|1,0,1,0,0,2,0,0,0,1,2|0,0,0,1,0,1,0,0,1,0,2|0,2,1,2,1,2,0,0,0,0,0|2,1,1,1,0,0,2,1,1,0,1|2,1,0,0,0,0,1,0,0,0,0|];
vertical=[|0,1,2,2,1,0,2,1,0,0,1,0|2,0,0,2,1,1,2,1,1,0,2,2|0,2,1,0,0,2,1,0,2,1,0,2|2,1,0,0,1,1,0,2,0,2,1,1|1,0,0,2,0,0,1,0,1,2,0,0|1,0,2,1,0,0,2,1,0,0,2,1|0,0,1,1,1,0,0,2,1,0,0,0|0,2,0,2,0,2,0,1,0,1,1,0|0,2,2,0,2,1,0,1,1,0,0,0|0,2,1,1,0,2,0,2,0,0,1,0|0,0,1,0,2,0,0,1,0,1,2,0|];
